language ESSENCE' 1.0

letting jobs = 102
letting horizon = 796
letting resourcesRenew = 2
letting resourcesNonrenew = 2
letting resourceLimits = [23, 22, 577, 584]
letting successors = [[2, 3, 4, 5, 7, 9, 10, 12, 25], [32, 24, 8, 6], [32, 24, 15, 13, 8], [19, 18, 17, 14, 13], [32, 8], [22, 21, 18, 15, 13], [27, 18, 17, 11], [23, 18, 16, 14], [30, 27, 24, 20, 16], [18, 14], [35, 32, 30, 28, 24, 20], [29, 28, 27, 26, 18], [43, 35, 33, 30, 27, 20], [38, 26, 22, 21], [44, 43, 42, 38, 35, 34, 33, 31, 29, 28], [44, 43, 34, 22], [44, 43, 42, 35, 34, 33, 31, 30, 28], [45, 44, 43, 42, 41, 36, 35, 33, 31, 30], [42, 38, 36, 33, 29, 26], [42, 38, 36, 29, 26], [45, 44, 43, 41, 40, 37, 36, 35, 34, 33, 31], [42, 35, 33, 31, 29, 28], [45, 44, 40, 38, 36, 33, 31, 29], [46, 45, 44, 42, 38, 34, 33, 29], [45, 42, 41, 40, 36, 33, 31], [45, 44, 41, 40, 37, 34, 31], [45, 44, 41, 38, 34, 31], [56, 52, 48, 45, 40, 39, 37, 36], [58, 56, 51, 48, 47, 41, 37], [56, 48, 46, 40, 38, 37], [61, 58, 56, 52, 51, 49, 48, 47, 39], [58, 52, 51, 50, 47, 42, 40], [66, 61, 58, 56, 55, 54, 53, 52, 50], [61, 58, 47, 39], [71, 66, 61, 60, 58, 57, 56, 55, 53, 52, 51], [49, 47, 46], [69, 66, 62, 55, 53, 50, 49], [66, 61, 58, 54, 51, 50], [69, 66, 62, 55, 54, 53, 50], [71, 69, 67, 66, 63, 62, 61, 60, 55, 54], [73, 71, 66, 63, 61, 60, 57, 53, 52], [69, 62, 56, 55, 53, 49], [73, 71, 69, 62, 56, 49], [71, 69, 57, 56, 55, 51], [66, 53, 47], [63, 58, 57, 55, 51], [71, 69, 65, 63, 60, 55], [69, 67, 62, 59, 55], [67, 63, 60, 54], [71, 67, 65, 63, 60, 59], [70, 67, 62, 59], [70, 69, 62, 59], [79, 70, 67, 59], [81, 65, 57], [81, 79, 73, 70, 68, 64], [79, 72, 68, 64, 63], [86, 59], [90, 81, 76, 74, 73, 72, 70, 69], [80, 72, 68, 64], [95, 88, 75, 74, 72, 70, 68], [90, 88, 87, 82, 79, 76, 74, 70], [95, 87, 82, 81, 65], [95, 90, 88, 87, 86, 81, 80, 76, 74], [95, 88, 87, 82, 76, 75, 74], [86, 80, 79, 76, 74], [90, 82, 80, 76, 74], [95, 90, 85, 81, 80, 74], [101, 100, 94, 90, 87, 78, 77], [101, 100, 94, 88, 87, 78, 77], [101, 94, 89, 86, 84, 83, 80, 78], [101, 100, 94, 90, 89, 87, 86, 84, 83], [100, 94, 89, 87, 84, 83, 78], [101, 100, 95, 87, 85, 84, 83], [101, 100, 94, 77], [100, 98, 94, 93, 92, 91, 90, 89], [84, 83, 78], [91, 89, 84, 83], [98, 93, 92, 85], [100, 98, 93, 85], [100, 99, 98, 97, 92], [98, 94, 92, 91], [98, 91, 89], [99, 98, 93], [98, 97, 92], [99, 96, 91], [99, 96, 91], [98, 93], [99, 92], [97, 96], [99, 96], [97], [96], [96], [96], [96], [102], [102], [102], [102], [102], [102], []]
letting durations = [[0], [2, 3, 9], [1, 2, 5], [1, 6, 9], [1, 3, 8], [2, 3, 8], [2, 7, 9], [3, 5, 8], [6, 9, 10], [1, 2, 9], [8, 9, 10], [5, 6, 8], [6, 7, 8], [1, 8, 10], [1, 4, 10], [1, 6, 10], [4, 7, 8], [1, 2, 6], [1, 2, 6], [1, 7, 10], [1, 4, 6], [2, 5, 7], [1, 2, 9], [3, 7, 10], [4, 5, 8], [3, 6, 10], [2, 3, 8], [2, 5, 9], [1, 8, 10], [2, 5, 10], [2, 3, 5], [1, 3, 7], [4, 5, 6], [2, 6, 10], [1, 2, 4], [3, 4, 6], [3, 4, 8], [5, 7, 10], [3, 5, 9], [2, 4, 10], [1, 4, 6], [4, 9, 10], [3, 7, 8], [7, 9, 10], [1, 2, 7], [1, 3, 10], [1, 2, 9], [1, 2, 7], [5, 6, 7], [5, 6, 7], [2, 4, 6], [4, 5, 6], [5, 7, 9], [4, 7, 9], [4, 8, 10], [1, 2, 3], [1, 3, 5], [2, 3, 6], [8, 9, 10], [5, 6, 7], [2, 3, 4], [1, 6, 9], [2, 3, 5], [5, 8, 9], [1, 3, 7], [5, 6, 9], [1, 5, 8], [4, 6, 10], [1, 6, 7], [1, 6, 10], [3, 4, 8], [5, 5, 6], [1, 2, 6], [3, 5, 6], [4, 8, 9], [2, 5, 6], [5, 6, 8], [5, 8, 10], [6, 8, 9], [1, 3, 6], [6, 7, 8], [3, 7, 8], [2, 5, 8], [4, 5, 7], [1, 2, 8], [3, 7, 8], [4, 5, 8], [6, 9, 10], [1, 4, 10], [1, 2, 4], [4, 7, 10], [6, 8, 10], [1, 2, 7], [2, 8, 9], [1, 2, 7], [2, 4, 9], [4, 7, 9], [3, 4, 5], [1, 2, 4], [4, 5, 10], [3, 8, 10], [0]]
letting resourceUsage = [[[0, 0, 0, 0]], [[3, 2, 8, 3], [3, 1, 8, 2], [2, 1, 8, 2]], [[5, 3, 9, 4], [5, 3, 8, 4], [5, 3, 8, 3]], [[2, 2, 6, 5], [1, 1, 6, 5], [1, 1, 6, 4]], [[5, 3, 8, 4], [4, 3, 7, 4], [3, 2, 6, 4]], [[4, 3, 7, 9], [3, 3, 6, 9], [1, 1, 6, 9]], [[3, 3, 7, 7], [2, 2, 4, 4], [2, 1, 3, 3]], [[3, 4, 9, 8], [3, 3, 9, 6], [3, 2, 9, 6]], [[3, 4, 8, 8], [3, 3, 7, 6], [2, 3, 7, 6]], [[1, 3, 5, 6], [1, 3, 5, 3], [1, 2, 5, 1]], [[5, 3, 3, 1], [4, 1, 2, 1], [3, 1, 1, 1]], [[4, 4, 7, 9], [3, 3, 3, 9], [2, 2, 1, 9]], [[3, 3, 2, 7], [2, 2, 2, 4], [1, 2, 2, 3]], [[4, 5, 9, 5], [3, 5, 7, 4], [3, 5, 6, 3]], [[3, 2, 10, 7], [2, 1, 9, 5], [1, 1, 7, 4]], [[2, 4, 5, 6], [1, 3, 5, 5], [1, 3, 5, 4]], [[2, 4, 4, 6], [2, 3, 4, 6], [1, 3, 4, 3]], [[3, 4, 4, 6], [3, 3, 3, 4], [3, 3, 2, 3]], [[4, 4, 6, 8], [4, 4, 4, 6], [4, 4, 3, 4]], [[4, 4, 6, 3], [4, 4, 4, 2], [4, 3, 3, 2]], [[4, 3, 7, 7], [4, 2, 6, 5], [4, 2, 5, 4]], [[3, 4, 9, 7], [3, 4, 5, 4], [1, 4, 2, 1]], [[5, 4, 3, 10], [4, 2, 2, 10], [4, 2, 2, 9]], [[4, 3, 7, 8], [3, 3, 6, 8], [3, 3, 4, 7]], [[2, 5, 10, 7], [1, 4, 8, 7], [1, 3, 4, 7]], [[4, 5, 6, 6], [3, 5, 4, 5], [3, 5, 4, 4]], [[3, 4, 4, 8], [1, 3, 4, 7], [1, 3, 2, 5]], [[2, 5, 8, 8], [1, 3, 7, 6], [1, 1, 6, 6]], [[4, 4, 7, 2], [2, 3, 6, 1], [2, 2, 4, 1]], [[5, 3, 8, 5], [4, 3, 7, 5], [2, 2, 7, 3]], [[5, 4, 8, 4], [4, 3, 7, 3], [3, 1, 6, 2]], [[5, 4, 7, 7], [4, 3, 6, 7], [3, 2, 4, 7]], [[3, 4, 9, 6], [1, 2, 7, 3], [1, 2, 6, 3]], [[5, 4, 7, 6], [4, 2, 3, 5], [4, 1, 3, 5]], [[4, 3, 5, 9], [3, 3, 5, 4], [3, 2, 5, 1]], [[4, 4, 10, 5], [4, 2, 9, 5], [2, 2, 9, 4]], [[2, 5, 4, 3], [1, 3, 4, 1], [1, 2, 4, 1]], [[5, 3, 8, 9], [3, 3, 4, 5], [3, 3, 3, 4]], [[3, 3, 7, 8], [3, 2, 5, 4], [3, 2, 5, 3]], [[5, 4, 5, 8], [4, 4, 4, 8], [3, 4, 3, 7]], [[5, 4, 7, 10], [4, 3, 7, 8], [4, 2, 6, 7]], [[1, 1, 9, 7], [1, 1, 8, 8], [1, 1, 8, 7]], [[3, 2, 5, 5], [3, 2, 5, 4], [3, 2, 5, 2]], [[2, 3, 10, 10], [2, 2, 9, 9], [1, 2, 9, 9]], [[5, 4, 8, 3], [4, 3, 8, 2], [2, 3, 6, 2]], [[4, 3, 5, 10], [3, 3, 5, 7], [3, 3, 3, 5]], [[4, 5, 6, 6], [2, 5, 5, 6], [2, 5, 5, 3]], [[3, 5, 4, 1], [3, 4, 4, 1], [3, 2, 3, 1]], [[3, 2, 2, 4], [3, 2, 2, 3], [3, 2, 1, 2]], [[4, 4, 8, 3], [3, 3, 8, 2], [3, 3, 5, 2]], [[2, 3, 4, 5], [1, 3, 4, 4], [1, 3, 4, 3]], [[3, 1, 7, 8], [2, 1, 5, 6], [1, 1, 3, 3]], [[4, 3, 9, 9], [3, 3, 8, 7], [3, 3, 8, 6]], [[3, 3, 9, 3], [3, 2, 7, 2], [3, 1, 6, 2]], [[2, 4, 7, 9], [2, 2, 5, 8], [2, 1, 5, 8]], [[2, 2, 6, 8], [2, 1, 6, 8], [1, 1, 4, 7]], [[2, 4, 5, 10], [2, 3, 3, 9], [2, 2, 3, 8]], [[2, 3, 8, 5], [2, 1, 4, 3], [2, 1, 2, 2]], [[2, 5, 8, 7], [2, 3, 5, 5], [2, 3, 3, 4]], [[3, 3, 8, 5], [3, 3, 8, 4], [3, 1, 5, 4]], [[3, 3, 8, 3], [2, 3, 6, 3], [2, 3, 6, 2]], [[4, 4, 7, 10], [4, 4, 6, 8], [3, 4, 4, 8]], [[4, 4, 7, 8], [3, 3, 4, 8], [1, 3, 3, 8]], [[5, 3, 7, 8], [4, 2, 6, 7], [4, 1, 6, 5]], [[4, 5, 5, 4], [3, 4, 4, 3], [1, 4, 3, 2]], [[5, 5, 6, 7], [4, 3, 5, 7], [4, 3, 3, 5]], [[3, 2, 3, 6], [3, 1, 2, 5], [3, 1, 2, 4]], [[4, 5, 3, 7], [4, 5, 3, 6], [3, 5, 3, 2]], [[4, 5, 7, 5], [3, 3, 6, 4], [3, 2, 6, 4]], [[2, 2, 4, 7], [2, 1, 4, 6], [2, 1, 3, 5]], [[4, 3, 6, 3], [3, 3, 4, 3], [3, 3, 3, 3]], [[2, 3, 5, 7], [2, 2, 3, 8], [2, 2, 3, 7]], [[2, 3, 7, 8], [1, 1, 6, 7], [1, 1, 4, 7]], [[5, 2, 9, 4], [5, 2, 8, 4], [5, 2, 6, 4]], [[4, 4, 7, 7], [4, 3, 4, 3], [4, 2, 3, 1]], [[2, 3, 3, 7], [2, 2, 2, 5], [2, 1, 1, 3]], [[3, 5, 7, 5], [2, 4, 6, 5], [2, 2, 5, 4]], [[5, 2, 4, 7], [4, 2, 4, 7], [2, 1, 2, 7]], [[4, 3, 2, 8], [4, 3, 1, 7], [4, 2, 1, 4]], [[4, 4, 3, 6], [3, 4, 3, 5], [3, 4, 3, 4]], [[4, 3, 3, 7], [3, 2, 2, 7], [1, 2, 2, 4]], [[2, 4, 3, 5], [1, 2, 2, 2], [1, 2, 1, 2]], [[5, 3, 6, 9], [5, 1, 5, 9], [5, 1, 4, 8]], [[5, 5, 7, 5], [4, 4, 5, 5], [4, 3, 4, 5]], [[3, 5, 5, 7], [3, 5, 4, 7], [3, 5, 4, 6]], [[5, 4, 6, 5], [3, 2, 4, 5], [2, 2, 4, 4]], [[3, 3, 8, 10], [1, 3, 5, 9], [1, 3, 4, 9]], [[4, 1, 2, 4], [3, 1, 1, 3], [2, 1, 1, 2]], [[3, 5, 8, 9], [3, 2, 5, 7], [2, 2, 1, 7]], [[3, 4, 7, 7], [2, 3, 6, 6], [1, 1, 6, 6]], [[3, 2, 7, 8], [3, 2, 5, 6], [3, 2, 3, 2]], [[4, 5, 6, 7], [4, 3, 4, 7], [4, 2, 2, 7]], [[4, 4, 7, 4], [3, 3, 5, 4], [3, 2, 3, 3]], [[3, 4, 6, 2], [2, 2, 6, 2], [2, 2, 6, 1]], [[4, 2, 8, 8], [2, 2, 6, 6], [2, 2, 4, 4]], [[4, 3, 3, 7], [2, 2, 2, 7], [2, 1, 2, 7]], [[3, 2, 10, 8], [2, 1, 9, 5], [2, 1, 9, 4]], [[4, 4, 7, 9], [3, 3, 5, 9], [2, 3, 4, 9]], [[3, 4, 6, 5], [3, 3, 4, 4], [2, 3, 3, 3]], [[2, 4, 5, 5], [1, 4, 3, 4], [1, 4, 2, 4]], [[4, 4, 4, 3], [4, 3, 2, 2], [3, 3, 2, 2]], [[0, 0, 0, 0]]]
